NAME : data_11_1_tsptw.tsptw.7582.tour
COMMENT : Length = 7582
COMMENT : Found by LKH [Keld Helsgaun] Tue Feb  4 12:46:25 2020
TYPE : TOUR
DIMENSION : 12
TOUR_SECTION
1
7
4
3
2
9
10
8
11
6
12
5
-1
EOF
